69 98 88 53 14 47 15 16 17 73 79 7 8 46 4 3 1 43 36 35 37 54 
70 100 2 45 5 6 78 12 11 9 87 74 97 13 10 60 55 68 
92 95 62 31 29 28 30 33 63 85 51 76 89 84 56 91 80 
82 99 52 86 59 75 58 77 25 23 48 20 24 
65 83 57 21 18 19 49 22 64 66 90 
61 42 44 40 38 39 41 72 71 81 94 67 50 32 26 27 34 93 96 
